c description: Graph pigeonhole principle formula on fast_gnp_random_graph(20,10,0.5)
c generator: CNFgen (0.9.0)
c copyright: (C) 2012-2020 Massimo Lauria <massimo.lauria@uniroma1.it>
c url: https://massimolauria.net/cnfgen
c
p cnf 106 573
1 2 3 4 5 6 0
7 8 9 10 11 12 0
13 14 15 16 17 0
18 19 20 21 22 23 24 25 0
26 27 28 29 30 0
31 32 33 34 35 36 0
37 38 39 40 41 42 0
43 44 45 46 47 48 49 0
50 51 52 0
53 54 55 56 57 0
58 59 60 61 62 0
63 64 65 66 67 68 69 70 0
71 72 73 74 75 76 77 0
78 79 80 81 0
82 83 84 85 0
86 87 88 89 0
90 91 92 93 0
94 95 96 97 0
98 99 100 101 102 103 104 0
105 106 0
-1 -7 0
-1 -13 0
-1 -26 0
-1 -31 0
-1 -37 0
-1 -43 0
-1 -50 0
-1 -53 0
-1 -63 0
-1 -71 0
-1 -78 0
-1 -82 0
-1 -94 0
-1 -98 0
-7 -13 0
-7 -26 0
-7 -31 0
-7 -37 0
-7 -43 0
-7 -50 0
-7 -53 0
-7 -63 0
-7 -71 0
-7 -78 0
-7 -82 0
-7 -94 0
-7 -98 0
-13 -26 0
-13 -31 0
-13 -37 0
-13 -43 0
-13 -50 0
-13 -53 0
-13 -63 0
-13 -71 0
-13 -78 0
-13 -82 0
-13 -94 0
-13 -98 0
-26 -31 0
-26 -37 0
-26 -43 0
-26 -50 0
-26 -53 0
-26 -63 0
-26 -71 0
-26 -78 0
-26 -82 0
-26 -94 0
-26 -98 0
-31 -37 0
-31 -43 0
-31 -50 0
-31 -53 0
-31 -63 0
-31 -71 0
-31 -78 0
-31 -82 0
-31 -94 0
-31 -98 0
-37 -43 0
-37 -50 0
-37 -53 0
-37 -63 0
-37 -71 0
-37 -78 0
-37 -82 0
-37 -94 0
-37 -98 0
-43 -50 0
-43 -53 0
-43 -63 0
-43 -71 0
-43 -78 0
-43 -82 0
-43 -94 0
-43 -98 0
-50 -53 0
-50 -63 0
-50 -71 0
-50 -78 0
-50 -82 0
-50 -94 0
-50 -98 0
-53 -63 0
-53 -71 0
-53 -78 0
-53 -82 0
-53 -94 0
-53 -98 0
-63 -71 0
-63 -78 0
-63 -82 0
-63 -94 0
-63 -98 0
-71 -78 0
-71 -82 0
-71 -94 0
-71 -98 0
-78 -82 0
-78 -94 0
-78 -98 0
-82 -94 0
-82 -98 0
-94 -98 0
-2 -8 0
-2 -14 0
-2 -18 0
-2 -32 0
-2 -44 0
-2 -54 0
-2 -58 0
-2 -64 0
-2 -72 0
-2 -86 0
-2 -90 0
-2 -95 0
-2 -99 0
-8 -14 0
-8 -18 0
-8 -32 0
-8 -44 0
-8 -54 0
-8 -58 0
-8 -64 0
-8 -72 0
-8 -86 0
-8 -90 0
-8 -95 0
-8 -99 0
-14 -18 0
-14 -32 0
-14 -44 0
-14 -54 0
-14 -58 0
-14 -64 0
-14 -72 0
-14 -86 0
-14 -90 0
-14 -95 0
-14 -99 0
-18 -32 0
-18 -44 0
-18 -54 0
-18 -58 0
-18 -64 0
-18 -72 0
-18 -86 0
-18 -90 0
-18 -95 0
-18 -99 0
-32 -44 0
-32 -54 0
-32 -58 0
-32 -64 0
-32 -72 0
-32 -86 0
-32 -90 0
-32 -95 0
-32 -99 0
-44 -54 0
-44 -58 0
-44 -64 0
-44 -72 0
-44 -86 0
-44 -90 0
-44 -95 0
-44 -99 0
-54 -58 0
-54 -64 0
-54 -72 0
-54 -86 0
-54 -90 0
-54 -95 0
-54 -99 0
-58 -64 0
-58 -72 0
-58 -86 0
-58 -90 0
-58 -95 0
-58 -99 0
-64 -72 0
-64 -86 0
-64 -90 0
-64 -95 0
-64 -99 0
-72 -86 0
-72 -90 0
-72 -95 0
-72 -99 0
-86 -90 0
-86 -95 0
-86 -99 0
-90 -95 0
-90 -99 0
-95 -99 0
-3 -9 0
-3 -15 0
-3 -19 0
-3 -27 0
-3 -100 0
-9 -15 0
-9 -19 0
-9 -27 0
-9 -100 0
-15 -19 0
-15 -27 0
-15 -100 0
-19 -27 0
-19 -100 0
-27 -100 0
-10 -20 0
-10 -28 0
-10 -38 0
-10 -45 0
-10 -59 0
-10 -65 0
-10 -101 0
-20 -28 0
-20 -38 0
-20 -45 0
-20 -59 0
-20 -65 0
-20 -101 0
-28 -38 0
-28 -45 0
-28 -59 0
-28 -65 0
-28 -101 0
-38 -45 0
-38 -59 0
-38 -65 0
-38 -101 0
-45 -59 0
-45 -65 0
-45 -101 0
-59 -65 0
-59 -101 0
-65 -101 0
-46 -55 0
-46 -66 0
-46 -73 0
-46 -91 0
-46 -105 0
-55 -66 0
-55 -73 0
-55 -91 0
-55 -105 0
-66 -73 0
-66 -91 0
-66 -105 0
-73 -91 0
-73 -105 0
-91 -105 0
-4 -16 0
-4 -21 0
-4 -33 0
-4 -39 0
-4 -56 0
-4 -67 0
-4 -74 0
-4 -79 0
-4 -83 0
-4 -87 0
-4 -92 0
-16 -21 0
-16 -33 0
-16 -39 0
-16 -56 0
-16 -67 0
-16 -74 0
-16 -79 0
-16 -83 0
-16 -87 0
-16 -92 0
-21 -33 0
-21 -39 0
-21 -56 0
-21 -67 0
-21 -74 0
-21 -79 0
-21 -83 0
-21 -87 0
-21 -92 0
-33 -39 0
-33 -56 0
-33 -67 0
-33 -74 0
-33 -79 0
-33 -83 0
-33 -87 0
-33 -92 0
-39 -56 0
-39 -67 0
-39 -74 0
-39 -79 0
-39 -83 0
-39 -87 0
-39 -92 0
-56 -67 0
-56 -74 0
-56 -79 0
-56 -83 0
-56 -87 0
-56 -92 0
-67 -74 0
-67 -79 0
-67 -83 0
-67 -87 0
-67 -92 0
-74 -79 0
-74 -83 0
-74 -87 0
-74 -92 0
-79 -83 0
-79 -87 0
-79 -92 0
-83 -87 0
-83 -92 0
-87 -92 0
-5 -17 0
-5 -22 0
-5 -34 0
-5 -51 0
-5 -57 0
-5 -60 0
-5 -75 0
-5 -88 0
-5 -96 0
-5 -102 0
-17 -22 0
-17 -34 0
-17 -51 0
-17 -57 0
-17 -60 0
-17 -75 0
-17 -88 0
-17 -96 0
-17 -102 0
-22 -34 0
-22 -51 0
-22 -57 0
-22 -60 0
-22 -75 0
-22 -88 0
-22 -96 0
-22 -102 0
-34 -51 0
-34 -57 0
-34 -60 0
-34 -75 0
-34 -88 0
-34 -96 0
-34 -102 0
-51 -57 0
-51 -60 0
-51 -75 0
-51 -88 0
-51 -96 0
-51 -102 0
-57 -60 0
-57 -75 0
-57 -88 0
-57 -96 0
-57 -102 0
-60 -75 0
-60 -88 0
-60 -96 0
-60 -102 0
-75 -88 0
-75 -96 0
-75 -102 0
-88 -96 0
-88 -102 0
-96 -102 0
-6 -11 0
-6 -23 0
-6 -29 0
-6 -40 0
-6 -47 0
-6 -61 0
-6 -68 0
-6 -76 0
-6 -84 0
-6 -106 0
-11 -23 0
-11 -29 0
-11 -40 0
-11 -47 0
-11 -61 0
-11 -68 0
-11 -76 0
-11 -84 0
-11 -106 0
-23 -29 0
-23 -40 0
-23 -47 0
-23 -61 0
-23 -68 0
-23 -76 0
-23 -84 0
-23 -106 0
-29 -40 0
-29 -47 0
-29 -61 0
-29 -68 0
-29 -76 0
-29 -84 0
-29 -106 0
-40 -47 0
-40 -61 0
-40 -68 0
-40 -76 0
-40 -84 0
-40 -106 0
-47 -61 0
-47 -68 0
-47 -76 0
-47 -84 0
-47 -106 0
-61 -68 0
-61 -76 0
-61 -84 0
-61 -106 0
-68 -76 0
-68 -84 0
-68 -106 0
-76 -84 0
-76 -106 0
-84 -106 0
-24 -35 0
-24 -41 0
-24 -48 0
-24 -52 0
-24 -62 0
-24 -69 0
-24 -80 0
-24 -85 0
-24 -103 0
-35 -41 0
-35 -48 0
-35 -52 0
-35 -62 0
-35 -69 0
-35 -80 0
-35 -85 0
-35 -103 0
-41 -48 0
-41 -52 0
-41 -62 0
-41 -69 0
-41 -80 0
-41 -85 0
-41 -103 0
-48 -52 0
-48 -62 0
-48 -69 0
-48 -80 0
-48 -85 0
-48 -103 0
-52 -62 0
-52 -69 0
-52 -80 0
-52 -85 0
-52 -103 0
-62 -69 0
-62 -80 0
-62 -85 0
-62 -103 0
-69 -80 0
-69 -85 0
-69 -103 0
-80 -85 0
-80 -103 0
-85 -103 0
-12 -25 0
-12 -30 0
-12 -36 0
-12 -42 0
-12 -49 0
-12 -70 0
-12 -77 0
-12 -81 0
-12 -89 0
-12 -93 0
-12 -97 0
-12 -104 0
-25 -30 0
-25 -36 0
-25 -42 0
-25 -49 0
-25 -70 0
-25 -77 0
-25 -81 0
-25 -89 0
-25 -93 0
-25 -97 0
-25 -104 0
-30 -36 0
-30 -42 0
-30 -49 0
-30 -70 0
-30 -77 0
-30 -81 0
-30 -89 0
-30 -93 0
-30 -97 0
-30 -104 0
-36 -42 0
-36 -49 0
-36 -70 0
-36 -77 0
-36 -81 0
-36 -89 0
-36 -93 0
-36 -97 0
-36 -104 0
-42 -49 0
-42 -70 0
-42 -77 0
-42 -81 0
-42 -89 0
-42 -93 0
-42 -97 0
-42 -104 0
-49 -70 0
-49 -77 0
-49 -81 0
-49 -89 0
-49 -93 0
-49 -97 0
-49 -104 0
-70 -77 0
-70 -81 0
-70 -89 0
-70 -93 0
-70 -97 0
-70 -104 0
-77 -81 0
-77 -89 0
-77 -93 0
-77 -97 0
-77 -104 0
-81 -89 0
-81 -93 0
-81 -97 0
-81 -104 0
-89 -93 0
-89 -97 0
-89 -104 0
-93 -97 0
-93 -104 0
-97 -104 0